100
300
40
0 0
88 51
30 78
39 98
17 71
93 2
75 98
39 46
41 9
37 0
81 17
32 17
43 52
34 83
83 38
45 45
94 92
37 67
6 24
25 47
92 73
83 82
39 38
84 87
18 58
71 49
71 99
47 77
23 43
81 41
65 24
73 51
4 95
57 64
85 34
57 94
50 76
11 31
26 28
57 60
71 93
0 0
50
60
70
30
30
30
50
50
30
70
60
70
30
50
50
40
40
30
70
70
50
60
70
30
30
30
50
50
30
70
60
70
30
50
50
40
40
30
70
70
